NAME: CMT11_4
TYPE: CVRP
COMMENT: 1042.11 - Cluster Nr.4
DIMENSION: 21
CAPACITY: 200
EDGE_WEIGHT_TYPE: EUC_2D
NODE_COORD_TYPE: TWOD_COORDS
NODE_COORD_SECTION: 
1 79 5
9 84 5
20 73 8
3 78 9
4 73 6
7 76 13
8 82 3
12 79 3
18 10 45
19 79 11
13 90 15
2 87 7
5 84 9
6 84 3
16 87 5
11 85 1
14 82 7
15 76 6
17 78 3
10 85 8
21 76 10
DEPOT_SECTION: 
18
-1
DEMAND_SECTION: 
11 7
18 0
3 13
1 16
9 10
10 4
15 17
21 4
8 6
17 12
4 13
2 4
12 8
20 18
16 2
6 11
19 15
14 5
13 9
7 7
5 3
EOF
